100 1512
0 3
0 8
0 13
0 14
0 16
0 23
0 24
0 25
0 27
0 31
0 32
0 34
0 39
0 40
0 41
0 46
0 47
0 52
0 53
0 54
0 55
0 61
0 64
0 65
0 67
0 72
0 75
0 78
0 80
0 82
0 84
0 85
0 90
0 93
1 2
1 4
1 5
1 10
1 14
1 19
1 21
1 27
1 32
1 38
1 43
1 47
1 51
1 60
1 61
1 66
1 68
1 70
1 71
1 74
1 76
1 77
1 78
1 81
1 82
1 85
1 87
1 92
1 97
1 99
2 9
2 12
2 26
2 28
2 31
2 34
2 38
2 40
2 41
2 42
2 47
2 50
2 52
2 54
2 55
2 58
2 62
2 63
2 66
2 74
2 82
2 85
2 89
2 90
3 7
3 11
3 19
3 27
3 28
3 29
3 35
3 37
3 39
3 42
3 52
3 60
3 61
3 68
3 71
3 72
3 78
3 79
3 82
3 87
3 88
3 89
3 90
3 91
3 92
3 93
3 95
3 96
3 99
4 9
4 10
4 11
4 18
4 29
4 31
4 34
4 37
4 40
4 41
4 43
4 44
4 50
4 54
4 59
4 60
4 62
4 65
4 66
4 70
4 76
4 80
4 84
4 96
4 99
5 7
5 9
5 12
5 15
5 18
5 22
5 24
5 36
5 42
5 43
5 44
5 47
5 50
5 55
5 69
5 71
5 73
5 74
5 75
5 79
5 82
5 83
5 85
5 88
5 90
5 91
5 92
5 94
6 7
6 9
6 10
6 11
6 12
6 23
6 24
6 25
6 26
6 30
6 31
6 32
6 33
6 38
6 44
6 45
6 49
6 55
6 56
6 57
6 70
6 73
6 74
6 75
6 78
6 79
6 80
6 82
6 87
6 92
6 93
6 98
7 12
7 13
7 16
7 18
7 19
7 25
7 27
7 31
7 39
7 47
7 48
7 52
7 54
7 55
7 57
7 64
7 69
7 70
7 71
7 79
7 81
7 88
7 90
7 91
7 92
7 94
7 97
8 17
8 18
8 28
8 30
8 31
8 33
8 35
8 36
8 38
8 39
8 49
8 52
8 53
8 56
8 60
8 61
8 69
8 79
8 81
8 82
8 83
8 84
8 86
8 89
8 92
8 96
8 97
9 10
9 11
9 12
9 19
9 21
9 41
9 44
9 47
9 52
9 55
9 57
9 58
9 62
9 67
9 74
9 75
9 79
9 80
9 84
9 85
10 11
10 20
10 21
10 25
10 26
10 28
10 29
10 30
10 34
10 39
10 40
10 41
10 43
10 44
10 47
10 53
10 54
10 57
10 59
10 63
10 68
10 69
10 74
10 82
10 86
10 87
10 90
10 91
10 93
10 97
10 98
11 14
11 18
11 26
11 31
11 33
11 34
11 35
11 37
11 45
11 49
11 51
11 52
11 55
11 57
11 58
11 59
11 60
11 63
11 65
11 67
11 69
11 77
11 78
11 79
11 83
11 86
12 13
12 19
12 23
12 25
12 26
12 30
12 31
12 33
12 36
12 48
12 49
12 51
12 56
12 62
12 67
12 74
12 75
12 78
12 79
12 81
12 83
12 89
12 90
12 91
12 93
12 94
12 95
13 15
13 16
13 18
13 21
13 27
13 29
13 33
13 39
13 43
13 47
13 48
13 50
13 62
13 66
13 70
13 76
13 78
13 80
13 81
13 84
13 85
13 86
13 96
13 97
13 99
14 15
14 18
14 26
14 31
14 36
14 38
14 43
14 44
14 45
14 52
14 54
14 55
14 56
14 57
14 61
14 66
14 68
14 69
14 70
14 72
14 74
14 81
14 82
14 84
14 85
14 89
14 96
15 23
15 26
15 27
15 32
15 35
15 40
15 44
15 48
15 49
15 50
15 51
15 56
15 64
15 66
15 69
15 85
15 88
15 92
15 94
15 95
15 96
16 20
16 21
16 27
16 30
16 31
16 33
16 35
16 42
16 45
16 46
16 47
16 49
16 52
16 53
16 60
16 61
16 65
16 66
16 67
16 69
16 70
16 76
16 77
16 83
16 85
16 89
16 90
16 92
16 97
17 25
17 31
17 34
17 38
17 42
17 44
17 47
17 48
17 51
17 53
17 54
17 55
17 56
17 59
17 62
17 66
17 67
17 68
17 71
17 75
17 84
17 85
17 86
17 88
17 90
17 98
17 99
18 19
18 22
18 24
18 30
18 35
18 37
18 38
18 43
18 46
18 49
18 50
18 51
18 55
18 56
18 58
18 62
18 63
18 64
18 66
18 67
18 71
18 73
18 78
18 80
18 83
18 94
18 96
18 99
19 21
19 22
19 24
19 26
19 28
19 30
19 32
19 34
19 37
19 45
19 52
19 56
19 66
19 67
19 68
19 69
19 71
19 72
19 73
19 75
19 79
19 83
19 86
19 93
19 94
19 97
20 21
20 23
20 24
20 29
20 31
20 32
20 37
20 39
20 42
20 45
20 47
20 48
20 51
20 54
20 58
20 62
20 64
20 65
20 68
20 69
20 71
20 72
20 76
20 80
20 82
20 91
20 92
20 94
20 95
20 96
20 97
20 98
20 99
21 25
21 28
21 31
21 34
21 35
21 37
21 45
21 48
21 56
21 57
21 58
21 59
21 61
21 62
21 63
21 69
21 71
21 73
21 76
21 84
21 90
21 93
21 95
21 97
22 23
22 30
22 32
22 33
22 37
22 39
22 40
22 43
22 45
22 47
22 48
22 50
22 55
22 59
22 63
22 67
22 69
22 70
22 80
22 81
22 85
22 86
22 91
23 24
23 28
23 37
23 41
23 44
23 49
23 50
23 54
23 56
23 59
23 60
23 63
23 65
23 72
23 76
23 78
23 90
23 93
24 30
24 31
24 33
24 40
24 42
24 43
24 45
24 49
24 52
24 55
24 60
24 66
24 70
24 73
24 81
24 82
24 85
24 87
24 96
24 97
24 98
25 32
25 42
25 43
25 44
25 46
25 49
25 51
25 52
25 55
25 59
25 60
25 61
25 66
25 67
25 69
25 71
25 73
25 74
25 76
25 78
25 80
25 81
25 86
25 94
25 95
25 96
25 97
25 98
26 31
26 37
26 38
26 39
26 41
26 45
26 54
26 56
26 58
26 60
26 64
26 65
26 66
26 67
26 70
26 72
26 74
26 78
26 80
26 81
26 86
26 88
26 90
26 91
26 92
26 93
26 95
26 98
27 34
27 37
27 38
27 41
27 43
27 44
27 47
27 49
27 54
27 58
27 64
27 65
27 73
27 74
27 80
27 81
27 82
27 83
27 86
27 87
27 88
27 90
27 97
27 99
28 31
28 32
28 34
28 46
28 47
28 48
28 54
28 55
28 57
28 61
28 62
28 63
28 68
28 70
28 71
28 72
28 77
28 78
28 84
28 87
28 89
28 91
28 92
28 96
28 99
29 34
29 35
29 43
29 45
29 52
29 54
29 55
29 58
29 61
29 63
29 64
29 70
29 75
29 82
29 86
29 89
29 93
29 94
29 96
30 31
30 34
30 38
30 42
30 44
30 45
30 46
30 57
30 58
30 63
30 73
30 78
30 80
30 82
30 84
30 86
30 87
30 88
30 89
30 90
30 95
30 99
31 34
31 35
31 45
31 54
31 62
31 63
31 64
31 67
31 70
31 78
31 80
31 85
31 92
31 93
31 99
32 33
32 40
32 43
32 44
32 48
32 55
32 56
32 59
32 60
32 63
32 65
32 66
32 71
32 78
32 79
32 82
32 84
32 86
32 88
32 90
32 92
32 94
32 95
32 99
33 42
33 52
33 55
33 56
33 59
33 60
33 62
33 64
33 65
33 69
33 73
33 75
33 83
33 85
33 88
33 92
33 93
33 96
33 97
34 36
34 37
34 40
34 42
34 43
34 45
34 47
34 50
34 52
34 55
34 62
34 64
34 65
34 69
34 76
34 81
34 84
34 90
34 92
34 95
35 39
35 40
35 48
35 52
35 55
35 57
35 63
35 67
35 79
35 80
35 86
35 87
35 88
35 97
35 99
36 37
36 39
36 44
36 54
36 61
36 62
36 63
36 70
36 80
36 81
36 85
36 86
36 87
36 90
36 91
36 97
37 39
37 40
37 43
37 48
37 53
37 54
37 57
37 58
37 64
37 65
37 66
37 70
37 71
37 74
37 75
37 82
37 83
37 87
37 92
37 97
38 41
38 43
38 50
38 56
38 60
38 61
38 64
38 68
38 77
38 79
38 85
38 90
38 91
38 92
38 94
39 40
39 44
39 51
39 56
39 59
39 65
39 70
39 75
39 79
39 80
39 91
39 92
39 97
40 41
40 46
40 47
40 51
40 56
40 62
40 63
40 64
40 65
40 72
40 73
40 76
40 77
40 81
40 86
40 90
40 93
40 94
40 96
40 99
41 45
41 47
41 50
41 51
41 53
41 54
41 56
41 58
41 59
41 67
41 69
41 73
41 75
41 77
41 81
41 85
41 91
41 94
41 96
41 98
42 43
42 50
42 51
42 53
42 54
42 57
42 62
42 63
42 67
42 69
42 76
42 79
42 81
42 89
42 90
42 91
42 93
42 96
43 48
43 49
43 50
43 51
43 56
43 59
43 60
43 66
43 68
43 70
43 72
43 73
43 77
43 81
43 82
43 84
43 90
43 91
43 94
43 98
44 46
44 49
44 54
44 56
44 62
44 66
44 68
44 75
44 89
44 96
44 97
44 98
45 50
45 53
45 54
45 55
45 56
45 69
45 78
45 83
45 84
45 88
45 89
45 90
45 94
45 96
46 52
46 58
46 60
46 61
46 65
46 66
46 67
46 69
46 75
46 77
46 83
46 84
46 87
46 88
46 93
46 94
46 95
47 65
47 70
47 78
47 79
47 80
47 83
47 86
47 88
47 90
47 92
47 96
47 97
47 99
48 49
48 51
48 54
48 58
48 67
48 69
48 71
48 77
48 79
48 80
48 83
48 90
48 92
48 93
48 95
49 53
49 56
49 57
49 58
49 59
49 61
49 64
49 65
49 71
49 73
49 76
49 78
49 82
49 83
49 85
49 93
49 98
50 52
50 59
50 70
50 71
50 77
50 81
50 84
50 85
50 97
50 99
51 54
51 59
51 64
51 66
51 68
51 72
51 73
51 76
51 84
51 85
51 90
51 99
52 59
52 62
52 64
52 67
52 74
52 79
52 84
52 87
52 91
52 92
52 95
52 99
53 54
53 58
53 60
53 61
53 69
53 73
53 74
53 75
53 76
53 81
53 82
53 84
53 94
53 95
53 97
53 99
54 65
54 68
54 70
54 72
54 78
54 80
54 81
54 82
54 84
54 85
54 90
54 94
54 97
55 56
55 62
55 63
55 65
55 68
55 70
55 73
55 74
55 77
55 78
55 81
55 82
55 83
55 85
55 87
55 88
55 89
55 90
55 91
55 96
55 98
55 99
56 61
56 62
56 63
56 65
56 70
56 74
56 80
56 83
56 89
56 90
56 91
56 93
56 94
56 96
56 97
56 98
56 99
57 60
57 63
57 65
57 66
57 68
57 72
57 74
57 75
57 77
57 78
57 79
57 83
57 87
57 94
57 95
57 97
57 99
58 60
58 62
58 66
58 67
58 78
58 79
58 86
58 87
58 88
58 89
58 90
59 60
59 61
59 67
59 69
59 72
59 75
59 76
59 81
59 82
59 83
59 85
59 88
59 96
60 61
60 62
60 63
60 66
60 69
60 73
60 74
60 77
60 78
60 79
60 81
60 87
60 92
60 94
61 63
61 65
61 67
61 70
61 72
61 76
61 95
61 97
62 70
62 71
62 77
62 79
62 82
62 83
62 86
62 91
62 92
62 94
62 98
62 99
63 68
63 79
63 82
63 83
63 84
63 86
63 87
63 89
63 92
63 93
63 96
63 99
64 66
64 70
64 73
64 76
64 77
64 83
64 85
64 94
64 95
65 66
65 67
65 72
65 77
65 82
65 87
65 94
66 67
66 68
66 71
66 74
66 77
66 79
66 81
66 82
66 85
66 93
66 94
66 98
67 68
67 71
67 74
67 77
67 80
67 82
67 86
67 91
67 94
67 95
67 96
67 97
67 98
68 71
68 78
68 81
68 83
68 85
68 86
68 90
68 91
68 98
68 99
69 71
69 72
69 79
69 82
69 88
69 97
69 98
70 74
70 79
70 80
70 87
70 89
71 74
71 76
71 79
71 82
71 91
71 93
71 94
71 96
71 97
72 73
72 76
72 78
72 80
72 85
72 90
72 93
72 94
73 74
73 77
73 79
73 81
73 85
73 88
73 97
74 76
74 82
74 83
74 93
74 97
75 77
75 80
75 87
75 97
75 99
76 79
76 80
76 81
76 82
76 96
76 98
77 78
77 83
77 87
77 89
77 90
77 91
77 97
78 80
78 86
78 90
78 96
78 99
79 81
79 82
79 83
79 86
79 87
79 88
79 91
79 93
79 95
79 96
79 97
79 99
80 82
80 87
80 89
80 90
80 92
80 93
80 94
80 95
81 90
82 84
82 85
82 87
82 95
83 87
83 88
83 89
83 93
83 98
84 87
84 88
84 99
85 92
85 93
85 94
85 96
85 97
85 98
85 99
86 88
86 91
86 92
86 94
86 95
87 88
87 89
87 92
87 94
87 99
88 94
88 96
88 98
88 99
89 91
89 97
89 98
90 94
90 97
90 98
91 93
91 94
91 99
92 95
92 99
93 96
93 97
93 98
94 96
94 98
94 99
95 96
95 97
95 99
96 97
96 99
97 98
